&control
    calculation='relax'
    restart_mode='from_scratch',
    pseudo_dir = './',
    outdir='./',
    disk_io='high',
    tstress=.true.,
    etot_conv_thr = 1e-5,
    forc_conv_thr = 1e-4
 /
 &system
   ibrav = 0,
    nat=  120,
    ntyp= 1,
    input_dft = "vdw-df-obk8",
    ecutwfc = 50
    ecutrho = 400
    nosym=.true.
 /
 &electrons
    conv_thr =  1.0d-5
    mixing_beta = 0.1
    electron_maxstep = 500
 /
 &ions
ion_dynamics = "bfgs"
 /
CELL_PARAMETERS angstrom
15.893012 0.0 0.0
0.0 9.159196 0.0
0.0 0.0 22.00
ATOMIC_SPECIES
 C 12.011 C.pbe-n-kjpaw_psl.1.0.0.UPF
ATOMIC_POSITIONS angstrom
  C     2.2644    2.6875    2.5202
  C  10.2109    6.4717    2.5202
  C   0.8189    2.6877    2.5195
  C   8.7654    6.4715    2.5195
  C   0.1293    3.7666    3.0929
  C   8.0758    5.3926    3.0929
  C   0.3749    1.3307    2.7757
  C   8.3214    7.8285    2.7757
  C  15.1520    1.0989    3.5952
  C   7.2055    8.0603    3.5952
  C  14.4431    2.2230    4.1626
  C   6.4966    6.9362    4.1626
  C  14.8744    3.5255    3.9228
  C   6.9279    5.6337    3.9228
  C  14.8962    4.4977    5.0119
  C   6.9497    4.6615    5.0119
  C   0.0963    5.3241    4.8749
  C   8.0428    3.8351    4.8749
  C   0.8479    4.8797    3.6957
  C   8.7944    4.2795    3.6957
  C   2.2340    4.8795    3.6957
  C  10.1805    4.2797    3.6957
  C   2.9533    3.7668    3.0934
  C  10.8998    5.3924    3.0934
  C   4.1012    3.5263    3.9236
  C  12.0477    5.6329    3.9236
  C   4.0789    4.4989    5.0123
  C  12.0254    4.6603    5.0123
  C   2.9852    5.3248    4.8750
  C  10.9317    3.8344    4.8750
  C   2.3457    6.0658    6.0076
  C  10.2923    3.0934    6.0075
  C   0.7348    6.0654    6.0076
  C   8.6814    3.0937    6.0076
  C   0.3543    5.3699    7.3095
  C   8.3008    3.7893    7.3095
  C   1.5400    5.0909    8.0847
  C   9.4865    4.0682    8.0847
  C   2.7259    5.3698    7.3096
  C  10.6724    3.7894    7.3096
  C   1.5403    4.0786    9.0601
  C   9.4868    5.0806    9.0601
  C   0.3745    3.2452    9.2233
  C   8.3210    5.9140    9.2233
  C  15.1522    3.4761    8.4025
  C   7.2057    5.6831    8.4026
  C  15.1265    4.5760    7.4666
  C   7.1800    4.5832    7.4666
  C  14.1806    4.2278    6.3080
  C   6.2341    4.9314    6.3080
  C  13.9853    2.7311    6.5143
  C   6.0388    6.4281    6.5144
  C  14.4429    2.3521    7.8371
  C   6.4964    6.8071    7.8371
  C  14.8746    1.0497    8.0771
  C   6.9281    8.1095    8.0772
  C  14.8964    0.0772    6.9883
  C   6.9499    9.0820    6.9884
  C  14.1815    0.3487    5.6917
  C   6.2350    8.8105    5.6917
  C  15.1264    9.1585    4.5323
  C   7.1799    0.0007    4.5323
  C   0.3547    8.3649    4.6902
  C   8.3012    0.7943    4.6902
  C   0.7352    7.6698    5.9929
  C   8.6817    1.4894    5.9929
  C   0.0966    8.4106    7.1254
  C   8.0431    0.7486    7.1254
  C   0.8482    8.8559    8.3044
  C   8.7947    0.3033    8.3044
  C   0.1295    0.8092    8.9070
  C   8.0760    8.3500    8.9070
  C   2.2342    8.8563    8.3045
  C  10.1807    0.3028    8.3044
  C   2.9537    0.8098    8.9071
  C  10.9002    8.3494    8.9071
  C   4.1016    1.0503    8.0770
  C  12.0481    8.1089    8.0769
  C   4.0787    0.0777    6.9882
  C  12.0252    9.0815    6.9882
  C   2.9850    8.4117    7.1255
  C  10.9315    0.7475    7.1255
  C   2.3459    7.6699    5.9933
  C  10.2924    1.4893    5.9932
  C   2.7263    8.3650    4.6908
  C  10.6728    0.7942    4.6908
  C   1.5406    8.6438    3.9150
  C   9.4871    0.5154    3.9150
  C   1.5408    0.4973    2.9392
  C   9.4873    8.6619    2.9392
  C   2.7072    1.3303    2.7768
  C  10.6537    7.8289    2.7768
  C   3.8224    1.0991    3.5971
  C  11.7689    8.0601    3.5971
  C   3.8481    9.1585    4.5334
  C  11.7946    0.0007    4.5334
  C   4.7935    0.3492    5.6921
  C  12.7400    8.8100    5.6921
  C   4.5320    2.2235    4.1631
  C  12.4785    6.9357    4.1631
  C   4.9877    1.8457    5.4860
  C  12.9342    7.3135    5.4860
  C   4.9895    2.7323    6.5144
  C  12.9360    6.4269    6.5143
  C   4.7948    4.2291    6.3082
  C  12.7413    4.9301    6.3082
  C   3.8479    4.5772    7.4669
  C  11.7944    4.5820    7.4668
  C   3.8224    3.4771    8.4031
  C  11.7689    5.6821    8.4031
  C   2.7068    3.2456    9.2228
  C  10.6533    5.9136    9.2228
  C   0.8188    1.8887    9.4801
  C   8.7653    7.2705    9.4801
  C   2.2641    1.8890    9.4801
  C  10.2106    7.2702    9.4801
  C  13.9866    1.8449    5.4857
  C   6.0401    7.3142    5.4857
  C   4.5325    2.3532    7.8371
  C  12.4790    6.8060    7.8371 
KC_POINTS {automatic}
 1 1 1 0 0 0

